WebMO-generated system:    C   H   O    
   1.0000000000000000     
    15.0000000000000000    0.0000000000000000    0.0000000000000000
     0.0000000000000000   15.0000000000000000    0.0000000000000000
     0.0000000000000000    0.0000000000000000   15.0000000000000000
   C    H    O 
     6     6     1
Selective dynamics
Direct
  0.4845768645483682  0.4987789855555299  0.4960567570446539   T   T   T
  0.5315978982057566  0.4183042891468967  0.5002748860615615   T   T   T
  0.6246860299913662  0.4192080101033921  0.5009315910962986   T   T   T
  0.6711583466171295  0.4997830787323065  0.4973432227837271   T   T   T
  0.6235002744192650  0.5797776987170780  0.4930735409784195   T   T   T
  0.5305605720559771  0.5798600244945904  0.4924166311971208   T   T   T
  0.4952831376477153  0.3551037462031382  0.5030634128396347   T   T   T
  0.6609041190959060  0.3561641510121967  0.5042698857448781   T   T   T
  0.7438572834705757  0.5003106967694403  0.4978591696722916   T   T   T
  0.6591426827683021  0.6431688091238319  0.4901995812075788   T   T   T
  0.4926719619124979  0.6418451836490422  0.4890633615844437   T   T   T
  0.3696721420965764  0.4416348524379599  0.4978790521420519   T   T   T
  0.3929848271705644  0.5022091340546053  0.4953111176473389   T   T   T

  0.00000000E+00  0.00000000E+00  0.00000000E+00
  0.00000000E+00  0.00000000E+00  0.00000000E+00
  0.00000000E+00  0.00000000E+00  0.00000000E+00
  0.00000000E+00  0.00000000E+00  0.00000000E+00
  0.00000000E+00  0.00000000E+00  0.00000000E+00
  0.00000000E+00  0.00000000E+00  0.00000000E+00
  0.00000000E+00  0.00000000E+00  0.00000000E+00
  0.00000000E+00  0.00000000E+00  0.00000000E+00
  0.00000000E+00  0.00000000E+00  0.00000000E+00
  0.00000000E+00  0.00000000E+00  0.00000000E+00
  0.00000000E+00  0.00000000E+00  0.00000000E+00
  0.00000000E+00  0.00000000E+00  0.00000000E+00
  0.00000000E+00  0.00000000E+00  0.00000000E+00
